Route #1: 2 48 38 9 16 34 32 19 15 49 17
Route #2: 46 13 26 22 50 12 23
Route #3: 4 45 14 39 24 31 3 28 11 21
Route #4: 1 30 18 20 42 40
Route #5: 47 51 7 43 33 35
Route #6: 37 29 27 8 5 10 44
Route #7: 41 25 6 36
Cost 748